Route 1: 27 69 40 53 26 13 89 58
Route 2: 28 12 76 79 50 1 77
Route 3: 59 95 98 99 6 96 91 93
Route 4: 92 52 88 94 97 60 100
Route 5: 5 82 18 84 37 17
Route 6: 31 7 8 46 48
Route 7: 2 21 73 22 56 74 80
Route 8: 45 83 16 85 43
Route 9: 33 30 51 9 20 32 70
Route 10: 29 81 3 68 24
Route 11: 42 15 87 57 4 25
Route 12: 72 75 41 54
Route 13: 63 62 19 90 10
Route 14: 14 61 86
Route 15: 65 71 78 34 35
Route 16: 44 38
Route 17: 39 23 67 55
Route 18: 47 11 49
Route 19: 36 64 66
Vehicles: 19
Distance: 2008.44
